%%% static parameters %%%
timespan = 1;
Fact = [2];
Distr1 = [5];
Distr2 = [10];
Clients_N = [120];
Demand_W = [15];
Lt0 = [4];
Lt1 = [4];
SS_ = [0.85];
DS_D = [5];
K = [200];
MA = [500];
%%% dynamic parameters %%%
lost_ratio_sales_ret_th = 0.8783575700003242;
lost_ratio_sales_ret_w = 24;
lost_ratio_sales_dis_th = 0.8218384115411819;
lost_ratio_sales_dis_w = 56;
lost_ratio_sales_fac_th = 0.4749079052339954;
lost_ratio_sales_fac_w = 44;
stock_customer_MA_mean_relative_th = 0.024415120183997607;
stock_customer_MA_mean_relative_w = 91;
stock_distributor_MA_mean_relative_th = 0.5786627874742539;
stock_distributor_MA_mean_relative_w = 50;
stock_retailer_MA_mean_relative_th = 0.37552035290541097;
stock_retailer_MA_mean_relative_w = 30;
stock_factory_MA_mean_relative_th = 0.4351474181397349;
stock_factory_MA_mean_relative_w = 11;
